
Gurobi 9.0.1 (win64) logging started 11/15/21 11:42:43

Changed value of parameter LogFile to ../results/logs/log_2021_11_15_11_42.csv_17_250.log
   Prev:   Default: 
Changed value of parameter method to 3
   Prev: -1  Min: -1  Max: 5  Default: -1
